presolving:
(round 1, fast)       60 del vars, 5058 del conss, 0 add conss, 4998 chg bounds, 0 chg sides, 0 chg coeffs, 0 upgd conss, 0 impls, 5308 clqs
   (0.1s) running MILP presolver
   (0.1s) MILP presolver found nothing
(round 2, exhaustive) 60 del vars, 5058 del conss, 0 add conss, 4998 chg bounds, 0 chg sides, 0 chg coeffs, 5307 upgd conss, 0 impls, 5308 clqs
   (0.9s) probing: 928/5280 (17.6%) - 0 fixings, 0 aggregations, 8473 implications, 0 bound changes
   (0.9s) probing aborted: 50/50 successive totally useless probings
   (0.9s) symmetry computation started: requiring (bin +, int -, cont +), (fixed: bin -, int +, cont -)
   (0.9s) no symmetry present
presolving (3 rounds: 3 fast, 2 medium, 2 exhaustive):
 4998 deleted vars, 5145 deleted constraints, 0 added constraints, 4998 tightened bounds, 0 added holes, 0 changed sides, 0 changed coefficients
 0 implications, 13781 cliques
presolved problem has 5280 variables (5280 bin, 0 int, 0 impl, 0 cont) and 5308 constraints
   5307 constraints of type <setppc>
      1 constraints of type <linear>
Presolving Time: 0.95

 time | node  | left  |LP iter|LP it/n|mem/heur|mdpt |vars |cons |rows |cuts |sepa|confs|strbr|  dualbound   | primalbound  |  gap   | compl. 
p 1.0s|     1 |     0 |     0 |     - |  clique|   0 |5280 |5308 |5308 |   0 |  0 |   0 |   0 |-2.100747e+05 |-2.991335e+05 |  42.39%| unknown
  1.2s|     1 |     0 |  2940 |     - |   109M |   0 |5280 |5309 |5308 |   0 |  0 |   1 |   0 |-2.741730e+05 |-2.991335e+05 |   9.10%| unknown
  1.8s|     1 |     0 |  3293 |     - |   113M |   0 |5280 |5310 |5310 |   2 |  1 |   2 |   0 |-2.741845e+05 |-2.991335e+05 |   9.10%| unknown
  2.5s|     1 |     0 |  3559 |     - |   118M |   0 |5280 |5310 |5311 |   3 |  2 |   2 |   0 |-2.741953e+05 |-2.991335e+05 |   9.10%| unknown
  3.4s|     1 |     0 |  3866 |     - |   124M |   0 |5280 |5310 |5312 |   4 |  3 |   2 |   0 |-2.742019e+05 |-2.991335e+05 |   9.09%| unknown
  4.3s|     1 |     0 |  4206 |     - |   131M |   0 |5280 |5310 |5314 |   6 |  4 |   2 |   0 |-2.742136e+05 |-2.991335e+05 |   9.09%| unknown
  5.4s|     1 |     0 |  4232 |     - |   137M |   0 |5280 |5310 |5315 |   7 |  5 |   2 |   0 |-2.742136e+05 |-2.991335e+05 |   9.09%| unknown
  6.5s|     1 |     0 |  4615 |     - |   142M |   0 |5280 |5310 |5317 |   9 |  6 |   2 |   0 |-2.742204e+05 |-2.991335e+05 |   9.09%| unknown
  7.3s|     1 |     0 |  5152 |     - |   148M |   0 |5280 |5310 |5319 |  11 |  7 |   2 |   0 |-2.742331e+05 |-2.991335e+05 |   9.08%| unknown
  8.1s|     1 |     0 |  5628 |     - |   152M |   0 |5280 |5311 |5321 |  13 |  8 |   3 |   0 |-2.742398e+05 |-2.991335e+05 |   9.08%| unknown
  9.0s|     1 |     0 |  5797 |     - |   154M |   0 |5280 |5311 |5323 |  15 |  9 |   3 |   0 |-2.742402e+05 |-2.991335e+05 |   9.08%| unknown
  9.7s|     1 |     0 |  5801 |     - |   157M |   0 |5280 |5311 |5324 |  16 | 10 |   3 |   0 |-2.742402e+05 |-2.991335e+05 |   9.08%| unknown
  9.8s|     1 |     0 |  5967 |     - |   158M |   0 |5280 |5311 |5326 |  18 | 11 |   3 |   0 |-2.742419e+05 |-2.991335e+05 |   9.08%| unknown
  9.8s|     1 |     0 |  6005 |     - |   158M |   0 |5280 |5311 |5327 |  19 | 12 |   3 |   0 |-2.742422e+05 |-2.991335e+05 |   9.08%| unknown
  9.9s|     1 |     0 |  6061 |     - |   159M |   0 |5280 |5311 |5328 |  20 | 13 |   3 |   0 |-2.742423e+05 |-2.991335e+05 |   9.08%| unknown
 time | node  | left  |LP iter|LP it/n|mem/heur|mdpt |vars |cons |rows |cuts |sepa|confs|strbr|  dualbound   | primalbound  |  gap   | compl. 
 10.0s|     1 |     0 |  6069 |     - |   160M |   0 |5280 |5311 |5329 |  21 | 14 |   3 |   0 |-2.742423e+05 |-2.991335e+05 |   9.08%| unknown
 10.0s|     1 |     0 |  6076 |     - |   160M |   0 |5280 |5311 |5330 |  22 | 15 |   3 |   0 |-2.742423e+05 |-2.991335e+05 |   9.08%| unknown
 10.1s|     1 |     0 |  6081 |     - |   161M |   0 |5280 |5311 |5329 |  23 | 16 |   3 |   0 |-2.742423e+05 |-2.991335e+05 |   9.08%| unknown
 10.2s|     1 |     0 |  6149 |     - |   161M |   0 |5280 |5311 |5330 |  24 | 17 |   3 |   0 |-2.742425e+05 |-2.991335e+05 |   9.08%| unknown
 10.2s|     1 |     0 |  6352 |     - |   161M |   0 |5280 |5311 |5331 |  25 | 18 |   3 |   0 |-2.742433e+05 |-2.991335e+05 |   9.08%| unknown
 15.4s|     1 |     2 | 41129 |     - |   162M |   0 |5280 |5311 |5331 |  25 | 18 |   3 |  27 |-2.742440e+05 |-2.991335e+05 |   9.08%| unknown
*18.5s|     3 |     2 | 42742 |18238.5 |strongbr|   2 |5280 |5311 |5318 |  25 |  1 |   3 |  84 |-2.742440e+05 |-2.786415e+05 |   1.60%| unknown
*18.5s|     3 |     2 | 42990 |18362.5 |strongbr|   2 |5280 |5311 |5318 |  25 |  2 |   3 |  85 |-2.742440e+05 |-2.764125e+05 |   0.79%| unknown
*18.6s|     3 |     2 | 43110 |18422.5 |strongbr|   2 |5280 |5311 |5318 |  25 |  4 |   3 |  90 |-2.742440e+05 |-2.756235e+05 |   0.50%| unknown
*28.8s|    25 |     4 | 57997 |2155.5 |    LP  |   9 |5280 |5343 |5318 |  25 |  2 |  35 | 260 |-2.742589e+05 |-2.751255e+05 |   0.32%|  28.54%
 33.2s|   100 |     7 | 73744 | 681.6 |   173M |  25 |5280 |5427 |5318 |  53 |  2 | 119 | 260 |-2.743001e+05 |-2.751255e+05 |   0.30%|  48.74%
 39.2s|   200 |     5 | 97966 | 460.8 |   183M |  34 |5280 |5595 |5325 | 107 |  2 | 294 | 329 |-2.743449e+05 |-2.751255e+05 |   0.28%|  78.00%
 45.9s|   300 |    15 |117964 | 373.6 |   190M |  34 |5280 |5622 |5322 | 125 |  1 | 334 | 357 |-2.743905e+05 |-2.751255e+05 |   0.27%|  80.11%
L49.1s|   346 |    11 |129165 | 356.2 |    rins|  34 |5280 |5653 |5328 | 138 |  3 | 370 | 379 |-2.743911e+05 |-2.751255e+05 |   0.27%|  80.19%
 55.4s|   400 |     9 |148042 | 355.3 |   194M |  34 |5280 |5727 |   0 | 169 |  0 | 464 | 434 |-2.744296e+05 |-2.751255e+05 |   0.25%|  81.30%
 time | node  | left  |LP iter|LP it/n|mem/heur|mdpt |vars |cons |rows |cuts |sepa|confs|strbr|  dualbound   | primalbound  |  gap   | compl. 
 57.4s|   500 |    11 |157284 | 302.6 |   194M |  34 |5280 |5621 |5325 | 177 |  0 | 479 | 434 |-2.744616e+05 |-2.751255e+05 |   0.24%|  83.27%
 62.7s|   600 |    21 |192094 | 310.2 |   196M |  36 |5280 |5598 |5322 | 178 |  0 | 512 | 477 |-2.744632e+05 |-2.751255e+05 |   0.24%|  83.32%
 68.6s|   700 |    11 |225936 | 314.3 |   200M |  44 |5280 |5762 |5321 | 215 |  2 | 744 | 594 |-2.744632e+05 |-2.751255e+05 |   0.24%|  83.32%

SCIP Status        : problem is solved [optimal solution found]
Solving Time (sec) : 70.81
Solving Nodes      : 747
Primal Bound       : -2.75125516716411e+05 (7 solutions)
Dual Bound         : -2.75125516716411e+05
Gap                : 0.00 %
Solve Status: optimal
Solve Time: 70.81 seconds
Objective Value: -275125.52
